Route #1: 0 33 26 102 12 87 15 45 0
Route #2: 0 53 43 28 93 97 66 24 0
Route #3: 0 44 103 75 7 84 19 78 0
Route #4: 0 52 90 9 101 76 60 100 0
Route #5: 0 5 51 34 83 1 104 92 0
Route #6: 0 11 21 54 85 2 48 14 71 0
Route #7: 0 96 82 29 74 99 49 62 22 0
Route #8: 0 72 57 94 64 17 77 67 58 0
Route #9: 0 63 13 40 31 105 69 91 36 8 0
Route #10: 0 88 86 18 41 10 73 20 0
Route #11: 0 16 89 38 30 42 4 61 0
Route #12: 0 35 32 55 3 70 6 50 65 59 0
Route #13: 0 68 95 23 98 81 39 80 47 0
Route #14: 0 25 56 27 37 79 46 0
Cost 28498:
